150
10000
1814
48
583
3617
2195
366
984
64
5414
5827
6539
3031
1947
1117
477
3913
2898
808
1412
7455
5868
3947
1916
5135
5025
1685
682
4426
631
580
2545
5276
978
3237
4612
1638
7449
1424
2027
3023
4255
4042
5883
6163
4915
3000
738
4621
90
3980
7198
1573
5379
2802
2746
807
193
4863
1811
1604
4003
2152
753
108
893
1225
3964
2759
3746
495
6538
793
3887
4546
5730
3761
3461
7083
6832
6977
169
1038
2730
4618
5933
1832
5654
346
2429
3172
3863
489
2673
2670
6383
913
3734
5842
2762
22
1120
992
607
4975
4996
673
4006
4640
6295
101
485
1
2146
4777
6763
2616
399
2529
1815
4511
7320
6036
4110
2181
2213
136
3278
7000
374
2071
4430
5441
3492
2150
1690
231
4158
6113
4132
2734
6569
813
1035
2664
1503
90
340
3379
2868
748
